job_count = 45 ;
duration = [|9, 22, 8, 9, 13, 11, 13, 7, 3|12, 6, 15, 18, 5, 14, 9, 9, 4|22, 5, 4, 11, 4, 9, 3, 15, 10|6, 2, 15, 15, 19, 4, 6, 3, 11|16, 14, 7, 19, 9, 3, 13, 10, 14|9, 3, 18, 7, 15, 2, 17, 12, 11|13, 15, 4, 9, 13, 4, 5, 13, 4|12, 23, 4, 10, 15, 5, 15, 11, 13|19, 19, 2, 12, 9, 11, 16, 14, 10|13, 18, 22, 17, 19, 5, 9, 13, 4|10, 22, 6, 15, 10, 18, 5, 15, 2|2, 19, 6, 17, 15, 6, 6, 14, 3|9, 22, 3, 18, 3, 4, 11, 4, 3|15, 16, 5, 7, 2, 10, 13, 13, 11|20, 9, 16, 5, 16, 7, 2, 14, 3|12, 14, 20, 6, 7, 2, 8, 10, 6|20, 11, 7, 11, 17, 4, 9, 13, 8|19, 15, 15, 8, 10, 16, 5, 2, 11|8, 20, 22, 7, 14, 11, 13, 3, 2|9, 5, 2, 2, 4, 17, 5, 4, 2|18, 23, 12, 10, 5, 15, 6, 2, 13|4, 21, 12, 14, 9, 5, 10, 15, 10|20, 9, 7, 5, 15, 16, 4, 12, 5|22, 9, 14, 11, 16, 10, 12, 9, 12|11, 18, 15, 11, 16, 14, 17, 3, 9|8, 14, 21, 17, 3, 5, 9, 6, 5|9, 13, 5, 20, 15, 16, 11, 10, 7|2, 7, 20, 19, 15, 3, 16, 12, 2|22, 7, 6, 3, 14, 9, 4, 6, 3|4, 15, 11, 7, 14, 15, 2, 2, 4|14, 6, 4, 14, 13, 14, 7, 8, 8|8, 16, 16, 14, 13, 10, 15, 8, 9|6, 18, 17, 3, 5, 2, 5, 8, 3|12, 2, 15, 17, 7, 16, 6, 14, 6|23, 18, 10, 14, 7, 6, 10, 5, 14|22, 21, 18, 6, 16, 4, 7, 4, 7|22, 6, 10, 17, 3, 3, 11, 10, 6|9, 5, 9, 13, 7, 9, 6, 12, 4|7, 12, 15, 13, 7, 14, 5, 10, 12|18, 12, 18, 11, 15, 14, 13, 13, 10|8, 11, 10, 3, 13, 2, 3, 8, 3|21, 19, 2, 20, 4, 11, 7, 7, 7|19, 10, 17, 9, 12, 8, 16, 15, 9|11, 7, 13, 12, 19, 7, 15, 12, 3|23, 17, 17, 15, 9, 12, 14, 8, 9|] ;
machine_count = 9 ;
cost = [|22, 32, 35, 28, 38, 43, 27, 29, 52|26, 29, 21, 30, 31, 41, 32, 44, 52|28, 24, 24, 39, 39, 37, 38, 40, 48|27, 20, 31, 20, 39, 24, 27, 47, 28|30, 20, 29, 24, 33, 41, 29, 27, 47|18, 17, 36, 20, 36, 33, 26, 49, 34|23, 17, 28, 22, 38, 31, 40, 45, 36|20, 17, 32, 20, 40, 34, 26, 42, 35|28, 30, 32, 23, 32, 40, 41, 32, 41|21, 23, 32, 20, 26, 30, 39, 43, 50|23, 27, 27, 23, 27, 28, 31, 26, 33|18, 29, 21, 37, 25, 41, 43, 26, 28|16, 33, 27, 31, 28, 31, 39, 42, 43|27, 23, 26, 20, 35, 23, 37, 37, 45|16, 25, 28, 30, 43, 38, 27, 51, 51|29, 19, 31, 31, 43, 37, 35, 33, 31|19, 33, 28, 30, 34, 39, 37, 51, 35|17, 27, 20, 27, 39, 44, 32, 40, 36|26, 30, 24, 31, 39, 36, 39, 39, 28|21, 30, 26, 23, 29, 38, 46, 40, 42|26, 19, 31, 39, 31, 42, 42, 36, 37|30, 22, 19, 28, 40, 42, 32, 41, 34|25, 29, 26, 26, 26, 36, 30, 30, 34|22, 27, 25, 32, 24, 38, 40, 44, 45|23, 21, 35, 30, 42, 30, 42, 44, 34|29, 21, 25, 30, 40, 25, 26, 40, 45|16, 30, 27, 23, 42, 42, 43, 48, 40|30, 32, 32, 39, 32, 44, 42, 33, 34|18, 26, 21, 29, 24, 36, 33, 29, 40|17, 26, 35, 31, 40, 39, 34, 32, 40|16, 25, 23, 24, 43, 25, 30, 31, 29|24, 23, 34, 30, 34, 29, 28, 33, 38|23, 26, 37, 35, 26, 33, 32, 44, 37|19, 22, 28, 35, 37, 42, 38, 44, 45|22, 21, 24, 21, 39, 39, 39, 38, 35|25, 21, 33, 34, 26, 31, 44, 49, 38|31, 32, 37, 27, 39, 25, 45, 45, 45|18, 17, 32, 27, 28, 27, 35, 26, 43|27, 31, 22, 23, 35, 24, 47, 46, 39|29, 18, 21, 22, 33, 39, 34, 39, 35|20, 26, 29, 24, 34, 42, 34, 35, 27|16, 31, 22, 39, 35, 31, 34, 35, 39|25, 22, 27, 23, 27, 28, 27, 45, 35|21, 26, 29, 33, 34, 38, 32, 45, 32|24, 33, 31, 29, 41, 38, 45, 36, 50|] ;
deadline = [33, 33, 33, 33, 33, 33, 33, 33, 33, 33, 33, 33, 33, 33, 33, 33, 33, 33, 33, 33, 33, 33, 33, 33, 33, 33, 33, 33, 33, 33, 33, 33, 33, 33, 33, 33, 33, 33, 33, 33, 33, 33, 33, 33, 33] ;
release = [0, 0, 0, 0, 0, 0, 0, 0, 0, 0, 0, 0, 0, 0, 0, 0, 0, 0, 0, 0, 0, 0, 0, 0, 0, 0, 0, 0, 0, 0, 0, 0, 0, 0, 0, 0, 0, 0, 0, 0, 0, 0, 0, 0, 0] ;
resource = [|9, 9, 9, 9, 9, 9, 9, 9, 9|8, 8, 8, 8, 8, 8, 8, 8, 8|4, 4, 4, 4, 4, 4, 4, 4, 4|4, 4, 4, 4, 4, 4, 4, 4, 4|5, 5, 5, 5, 5, 5, 5, 5, 5|9, 9, 9, 9, 9, 9, 9, 9, 9|8, 8, 8, 8, 8, 8, 8, 8, 8|4, 4, 4, 4, 4, 4, 4, 4, 4|4, 4, 4, 4, 4, 4, 4, 4, 4|7, 7, 7, 7, 7, 7, 7, 7, 7|7, 7, 7, 7, 7, 7, 7, 7, 7|9, 9, 9, 9, 9, 9, 9, 9, 9|3, 3, 3, 3, 3, 3, 3, 3, 3|5, 5, 5, 5, 5, 5, 5, 5, 5|4, 4, 4, 4, 4, 4, 4, 4, 4|6, 6, 6, 6, 6, 6, 6, 6, 6|9, 9, 9, 9, 9, 9, 9, 9, 9|9, 9, 9, 9, 9, 9, 9, 9, 9|9, 9, 9, 9, 9, 9, 9, 9, 9|1, 1, 1, 1, 1, 1, 1, 1, 1|3, 3, 3, 3, 3, 3, 3, 3, 3|5, 5, 5, 5, 5, 5, 5, 5, 5|4, 4, 4, 4, 4, 4, 4, 4, 4|2, 2, 2, 2, 2, 2, 2, 2, 2|5, 5, 5, 5, 5, 5, 5, 5, 5|2, 2, 2, 2, 2, 2, 2, 2, 2|7, 7, 7, 7, 7, 7, 7, 7, 7|1, 1, 1, 1, 1, 1, 1, 1, 1|2, 2, 2, 2, 2, 2, 2, 2, 2|4, 4, 4, 4, 4, 4, 4, 4, 4|4, 4, 4, 4, 4, 4, 4, 4, 4|8, 8, 8, 8, 8, 8, 8, 8, 8|2, 2, 2, 2, 2, 2, 2, 2, 2|8, 8, 8, 8, 8, 8, 8, 8, 8|9, 9, 9, 9, 9, 9, 9, 9, 9|7, 7, 7, 7, 7, 7, 7, 7, 7|5, 5, 5, 5, 5, 5, 5, 5, 5|7, 7, 7, 7, 7, 7, 7, 7, 7|8, 8, 8, 8, 8, 8, 8, 8, 8|7, 7, 7, 7, 7, 7, 7, 7, 7|5, 5, 5, 5, 5, 5, 5, 5, 5|5, 5, 5, 5, 5, 5, 5, 5, 5|6, 6, 6, 6, 6, 6, 6, 6, 6|5, 5, 5, 5, 5, 5, 5, 5, 5|7, 7, 7, 7, 7, 7, 7, 7, 7|] ;
capacities = [10, 10, 10, 10, 10, 10, 10, 10, 10] ;
